solution status: optimal solution found
objective value:                                  208
X$P0#1#9                                            1 	(obj:1)
X$P1#1#12                                           1 	(obj:1)
X$P2#1#15                                           1 	(obj:1)
X$P3#1#18                                           1 	(obj:1)
X$P4#2#9                                            1 	(obj:1)
X$P5#2#12                                           1 	(obj:1)
X$P6#2#15                                           1 	(obj:1)
X$P7#2#18                                           1 	(obj:1)
X$P8#3#9                                            1 	(obj:1)
X$P9#3#12                                           1 	(obj:1)
X$P10#3#15                                          1 	(obj:1)
X$P11#3#18                                          1 	(obj:1)
X$P12#4#9                                           1 	(obj:1)
X$P13#4#12                                          1 	(obj:1)
X$P14#4#15                                          1 	(obj:1)
X$P15#4#18                                          1 	(obj:1)
X$P16#5#9                                           1 	(obj:1)
X$P17#5#12                                          1 	(obj:1)
X$P18#5#15                                          1 	(obj:1)
X$P19#5#18                                          1 	(obj:1)
X$P20#9#9                                           1 	(obj:1)
X$P21#9#12                                          1 	(obj:1)
X$P22#9#15                                          1 	(obj:1)
X$P23#9#18                                          1 	(obj:1)
X$P24#1#9                                           1 	(obj:1)
X$P25#1#9                                           1 	(obj:1)
X$P26#9#12                                          1 	(obj:1)
X$P27#9#12                                          1 	(obj:1)
X$P28#9#15                                          1 	(obj:1)
X$P29#9#18                                          1 	(obj:1)
X$P30#9#9                                           1 	(obj:1)
X$P31#10#9                                          1 	(obj:1)
X$P32#10#12                                         1 	(obj:1)
X$P33#10#12                                         1 	(obj:1)
X$P34#10#12                                         1 	(obj:1)
X$P35#9#12                                          1 	(obj:1)
X$P36#4#15                                          1 	(obj:1)
X$P37#9#18                                          1 	(obj:1)
X$P38#10#9                                          1 	(obj:1)
X$P39#4#12                                          1 	(obj:1)
X$P40#5#12                                          1 	(obj:1)
X$P41#10#18                                         1 	(obj:1)
X$P42#4#18                                          1 	(obj:1)
X$P43#9#18                                          1 	(obj:1)
X$P44#3#12                                          1 	(obj:1)
X$P45#12#12                                         1 	(obj:1)
X$P46#1#18                                          1 	(obj:1)
X$P47#9#12                                          1 	(obj:1)
X$P48#12#18                                         1 	(obj:1)
X$P49#10#15                                         1 	(obj:1)
X$P50#5#15                                          1 	(obj:1)
X$P51#2#15                                          1 	(obj:1)
X$P52#1#9                                           1 	(obj:1)
X$P53#1#9                                           1 	(obj:1)
X$P54#9#12                                          1 	(obj:1)
X$P55#1#12                                          1 	(obj:1)
X$P56#4#18                                          1 	(obj:1)
X$P57#11#15                                         1 	(obj:1)
X$P58#1#9                                           1 	(obj:1)
X$P59#2#12                                          1 	(obj:1)
X$P60#10#12                                         1 	(obj:1)
X$P61#10#12                                         1 	(obj:1)
X$P62#2#12                                          1 	(obj:1)
X$P63#10#18                                         1 	(obj:1)
X$P64#12#15                                         1 	(obj:1)
X$P65#12#15                                         1 	(obj:1)
X$P66#3#18                                          1 	(obj:1)
X$P67#2#9                                           1 	(obj:1)
X$P68#2#9                                           1 	(obj:1)
X$P69#2#9                                           1 	(obj:1)
X$P70#12#18                                         1 	(obj:1)
X$P71#3#12                                          1 	(obj:1)
X$P72#4#18                                          1 	(obj:1)
X$P73#1#15                                          1 	(obj:1)
X$P74#1#9                                           1 	(obj:1)
X$P75#1#15                                          1 	(obj:1)
X$P76#4#15                                          1 	(obj:1)
X$P77#10#12                                         1 	(obj:1)
X$P78#1#18                                          1 	(obj:1)
X$P79#1#12                                          1 	(obj:1)
X$P80#9#15                                          1 	(obj:1)
X$P81#9#9                                           1 	(obj:1)
X$P82#1#12                                          1 	(obj:1)
X$P83#2#9                                           1 	(obj:1)
X$P84#2#9                                           1 	(obj:1)
X$P85#1#9                                           1 	(obj:1)
X$P86#10#15                                         1 	(obj:1)
X$P87#2#12                                          1 	(obj:1)
X$P88#9#9                                           1 	(obj:1)
X$P89#1#18                                          1 	(obj:1)
X$P90#10#9                                          1 	(obj:1)
X$P91#9#9                                           1 	(obj:1)
X$P92#4#15                                          1 	(obj:1)
X$P93#11#18                                         1 	(obj:1)
X$P94#12#12                                         1 	(obj:1)
X$P95#9#18                                          1 	(obj:1)
X$P96#9#12                                          1 	(obj:1)
X$P97#5#12                                          1 	(obj:1)
X$P98#11#18                                         1 	(obj:1)
X$P99#1#15                                          1 	(obj:1)
X$P100#3#12                                         1 	(obj:1)
X$P101#4#18                                         1 	(obj:1)
X$P102#12#18                                        1 	(obj:1)
X$P103#10#9                                         1 	(obj:1)
X$P104#9#18                                         1 	(obj:1)
X$P105#1#12                                         1 	(obj:1)
X$P106#2#9                                          1 	(obj:1)
X$P107#2#9                                          1 	(obj:1)
X$P108#2#9                                          1 	(obj:1)
X$P109#12#15                                        1 	(obj:1)
X$P110#1#9                                          1 	(obj:1)
X$P111#2#12                                         1 	(obj:1)
X$P112#12#18                                        1 	(obj:1)
X$P113#4#18                                         1 	(obj:1)
X$P114#12#18                                        1 	(obj:1)
X$P115#2#12                                         1 	(obj:1)
X$P116#12#12                                        1 	(obj:1)
X$P117#2#18                                         1 	(obj:1)
X$P118#9#9                                          1 	(obj:1)
X$P119#1#9                                          1 	(obj:1)
X$P120#10#12                                        1 	(obj:1)
X$P121#4#15                                         1 	(obj:1)
X$P122#12#9                                         1 	(obj:1)
X$P123#1#18                                         1 	(obj:1)
X$P124#10#18                                        1 	(obj:1)
X$P125#9#15                                         1 	(obj:1)
X$P126#1#12                                         1 	(obj:1)
X$P127#12#18                                        1 	(obj:1)
X$P128#10#15                                        1 	(obj:1)
X$P129#11#12                                        1 	(obj:1)
X$P130#9#9                                          1 	(obj:1)
X$P131#5#18                                         1 	(obj:1)
X$P132#12#9                                         1 	(obj:1)
X$P133#1#15                                         1 	(obj:1)
X$P134#9#18                                         1 	(obj:1)
X$P135#4#18                                         1 	(obj:1)
X$P136#1#18                                         1 	(obj:1)
X$P137#9#15                                         1 	(obj:1)
X$P138#10#12                                        1 	(obj:1)
X$P139#1#9                                          1 	(obj:1)
X$P140#9#18                                         1 	(obj:1)
X$P141#12#15                                        1 	(obj:1)
X$P142#9#9                                          1 	(obj:1)
X$P143#1#18                                         1 	(obj:1)
X$P144#9#18                                         1 	(obj:1)
X$P145#2#12                                         1 	(obj:1)
X$P146#9#12                                         1 	(obj:1)
X$P147#1#9                                          1 	(obj:1)
X$P148#12#18                                        1 	(obj:1)
X$P149#9#18                                         1 	(obj:1)
X$P150#10#12                                        1 	(obj:1)
X$P151#1#9                                          1 	(obj:1)
X$P152#2#9                                          1 	(obj:1)
X$P153#10#15                                        1 	(obj:1)
X$P154#9#18                                         1 	(obj:1)
X$P155#3#12                                         1 	(obj:1)
X$P156#2#9                                          1 	(obj:1)
X$P157#10#9                                         1 	(obj:1)
X$P158#9#9                                          1 	(obj:1)
X$P159#12#12                                        1 	(obj:1)
X$P160#5#18                                         1 	(obj:1)
X$P161#1#18                                         1 	(obj:1)
X$P162#9#12                                         1 	(obj:1)
X$P163#1#12                                         1 	(obj:1)
X$P164#1#12                                         1 	(obj:1)
X$P165#5#12                                         1 	(obj:1)
X$P166#10#12                                        1 	(obj:1)
X$P167#10#15                                        1 	(obj:1)
X$P168#2#12                                         1 	(obj:1)
X$P169#10#15                                        1 	(obj:1)
X$P170#1#9                                          1 	(obj:1)
X$P171#9#15                                         1 	(obj:1)
X$P172#1#18                                         1 	(obj:1)
X$P173#1#18                                         1 	(obj:1)
X$P174#12#9                                         1 	(obj:1)
X$P175#12#12                                        1 	(obj:1)
X$P176#12#12                                        1 	(obj:1)
X$P177#2#12                                         1 	(obj:1)
X$P178#10#15                                        1 	(obj:1)
X$P179#10#15                                        1 	(obj:1)
X$P180#3#12                                         1 	(obj:1)
X$P181#12#15                                        1 	(obj:1)
X$P182#5#18                                         1 	(obj:1)
X$P183#11#12                                        1 	(obj:1)
X$P184#1#15                                         1 	(obj:1)
X$P185#1#9                                          1 	(obj:1)
X$P186#12#15                                        1 	(obj:1)
X$P187#1#18                                         1 	(obj:1)
X$P188#1#9                                          1 	(obj:1)
X$P189#1#18                                         1 	(obj:1)
X$P190#1#9                                          1 	(obj:1)
X$P191#1#18                                         1 	(obj:1)
X$P192#10#15                                        1 	(obj:1)
X$P193#12#15                                        1 	(obj:1)
X$P194#12#18                                        1 	(obj:1)
X$P195#1#15                                         1 	(obj:1)
X$P196#4#12                                         1 	(obj:1)
X$P197#12#12                                        1 	(obj:1)
X$P198#10#9                                         1 	(obj:1)
X$P199#2#12                                         1 	(obj:1)
X$P200#10#12                                        1 	(obj:1)
X$P201#10#15                                        1 	(obj:1)
X$P202#1#12                                         1 	(obj:1)
X$P203#12#18                                        1 	(obj:1)
X$P204#3#12                                         1 	(obj:1)
X$P205#12#15                                        1 	(obj:1)
X$P206#1#9                                          1 	(obj:1)
X$P207#12#18                                        1 	(obj:1)
